42 94 158 161 39 136 74 104 7 155 188 175 95 112 129 125 190 36 160 75 31 148 180 4 124 48 152 172 199 59 3 66 126 156 46 49 110 167 90 92 135 40 122 151 38 30 113 77 165 149 84 115 195 132 100 72 177 27 55 67 70 117 179 93 18 52 37 88 197 57 33 183 79 20 61 146 189 108 116 191 118 114 187 56 98 11 176 182 43 1 85 131 10 184 35 2 50 143 62 164 14 134 142 23 193 65 22 78 133 159 71 157 96 119 168 169 68 76 15 32 173 147 140 194 87 111 123 29 86 130 24 58 103 144 17 16 128 127 28 12 19 5 54 121 53 139 99 13 154 82 106 178 198 107 192 109 89 34 83 196 60 44 80 45 101 63 47 91 51 171 137 166 97 120 64 150 170 102 69 174 6 73 186 162 163 81 0 26 8 153 105 181 141 9 25 138 185 41 21 145